ssat_solver_solve2
#level: 2
Abc_NtkNodeNum(s->pNtk): 1587  , BDD limit: 10240
level 1: 15 element
Exist
existence_eliminate_scope
Abc_NtkIsBddLogic(pNtk): 0
Abc_NtkIsStrash(pNtk): 1
existence_eliminate_scope_aig
exist by BDD failed
Abc_NtkNodeNum(s->pNtk): 704583  , BDD limit: 845499
Build BDD success
level 0: 15 element
Random
c ssat solving in ABC
#var: 30
s SATISFIABLE
  > Upper bound = 1.000000e+00
  > Lower bound = 1.000000e+00
FINISHED CPU 20.84 MEM 198232 MAXMEM 198232 STALE 0 MAXMEM_RSS 155192
<time name="ALL">20900</time>
real 21.24
user 24.35
sys 9.34
